10 - 10 - 133.49
10 - 20 - 129.14
10 - 30 - 122.24
40 - 10 - 31.5
40 - 20 - 43.5
40 - 30 - 45.5
50 - 10 - 36.5
50 - 20 - 51
50 - 30 - 56
40 - 10 - 30.5
40 - 20 - 28.5
40 - 30 - 19
50 - 10 - 25
50 - 20 - 20.5
50 - 30 - 23
40 - 10 - 230.5
40 - 20 - 208
40 - 30 - 171
40 - 10 - 166.5
40 - 20 - 208
40 - 30 - 146.5
50 - 10 - 239
50 - 20 - 217
50 - 30 - 208
40 - 10 - 166
40 - 20 - 177
40 - 30 - 166.5
50 - 10 - 253
50 - 20 - 208
50 - 30 - 211.5
